<?xml version = "1.0" encoding="UTF-8" standalone="yes"?>
<CPLEXSolution version="1.2">
 <header
   problemName="mknap4_cut_n2"
   objectiveValue="10672.345878167762"
   solutionTypeValue="1"
   solutionTypeString="basic"
   solutionStatusValue="1"
   solutionStatusString="optimal"
   solutionMethodString="primal"
   primalFeasible="1"
   dualFeasible="1"
   simplexIterations="0"
   writeLevel="1"/>
 <quality
   epRHS="9.9999999999999995e-07"
   epOpt="9.9999999999999995e-07"
   maxPrimalInfeas="0"
   maxDualInfeas="0"
   maxPrimalResidual="4.2377559794637421e-14"
   maxDualResidual="8.5265128291212022e-14"
   maxX="1"
   maxPi="5.9587975274289846"
   maxSlack="79.776728950566195"
   maxRedCost="301.0418787313107"
   kappa="540220.61119377648"/>
 <linearConstraints>
  <constraint name="c0" index="0" status="LL" slack="0" dual="5.9587975274289846"/>
  <constraint name="c1" index="1" status="LL" slack="0" dual="2.5662451790148459"/>
  <constraint name="c2" index="2" status="LL" slack="0" dual="1.4862582110843015"/>
  <constraint name="c3" index="3" status="BS" slack="79.776728950566195" dual="-0"/>
  <constraint name="c4" index="4" status="LL" slack="0" dual="5.5517461211982484"/>
  <constraint name="cut_1" index="5" status="BS" slack="13.438106475529644" dual="-0"/>
  <constraint name="cut_2" index="6" status="BS" slack="14.303805716499701" dual="-0"/>
 </linearConstraints>
 <variables>
  <variable name="x0" index="0" status="UL" value="1" reducedCost="13.144011411866188"/>
  <variable name="x1" index="1" status="BS" value="0.54509272141309917" reducedCost="0"/>
  <variable name="x2" index="2" status="LL" value="0" reducedCost="-78.916674004543637"/>
  <variable name="x3" index="3" status="UL" value="1" reducedCost="61.478481235581143"/>
  <variable name="x4" index="4" status="LL" value="0" reducedCost="-301.0418787313107"/>
  <variable name="x5" index="5" status="UL" value="1" reducedCost="164.19198175510274"/>
  <variable name="x6" index="6" status="LL" value="0" reducedCost="-6.4348872021555863"/>
  <variable name="x7" index="7" status="UL" value="1" reducedCost="39.816765581247935"/>
  <variable name="x8" index="8" status="UL" value="1" reducedCost="1.8360706549495589"/>
  <variable name="x9" index="9" status="LL" value="0" reducedCost="-19.748692390328085"/>
  <variable name="x10" index="10" status="UL" value="1" reducedCost="76.401465227268702"/>
  <variable name="x11" index="11" status="LL" value="0" reducedCost="-18.000757268900912"/>
  <variable name="x12" index="12" status="UL" value="1" reducedCost="24.356965993343074"/>
  <variable name="x13" index="13" status="UL" value="1" reducedCost="3.8852068400753712"/>
  <variable name="x14" index="14" status="UL" value="1" reducedCost="253.50364017399573"/>
  <variable name="x15" index="15" status="UL" value="1" reducedCost="208.62053783702822"/>
  <variable name="x16" index="16" status="UL" value="1" reducedCost="260.67315217582723"/>
  <variable name="x17" index="17" status="BS" value="0.69619428350034351" reducedCost="0"/>
  <variable name="x18" index="18" status="UL" value="1" reducedCost="33.139460754098927"/>
  <variable name="x19" index="19" status="UL" value="1" reducedCost="7.9232111723579211"/>
  <variable name="x20" index="20" status="BS" value="0.56189352447035179" reducedCost="0"/>
  <variable name="x21" index="21" status="LL" value="0" reducedCost="-30.960327915045021"/>
  <variable name="x22" index="22" status="UL" value="1" reducedCost="15.551439691456835"/>
  <variable name="x23" index="23" status="LL" value="0" reducedCost="-15.535227092615777"/>
  <variable name="x24" index="24" status="UL" value="1" reducedCost="2.3504235422573707"/>
  <variable name="x25" index="25" status="UL" value="1" reducedCost="10.015784653857658"/>
  <variable name="x26" index="26" status="UL" value="1" reducedCost="63.741415564517588"/>
  <variable name="x27" index="27" status="UL" value="1" reducedCost="11.987115862141842"/>
  <variable name="x28" index="28" status="UL" value="1" reducedCost="59.899874962576838"/>
  <variable name="x29" index="29" status="UL" value="1" reducedCost="1.8997058978919696"/>
  <variable name="x30" index="30" status="UL" value="1" reducedCost="31.303728228519109"/>
  <variable name="x31" index="31" status="UL" value="1" reducedCost="253.29200641036925"/>
  <variable name="x32" index="32" status="BS" value="0.29271965200852368" reducedCost="0"/>
  <variable name="x33" index="33" status="UL" value="1" reducedCost="17.457971575999856"/>
  <variable name="x34" index="34" status="UL" value="1" reducedCost="10.920770300970364"/>
  <variable name="x35" index="35" status="UL" value="1" reducedCost="1.3296197805681231"/>
  <variable name="x36" index="36" status="UL" value="1" reducedCost="35.957145624570771"/>
  <variable name="x37" index="37" status="UL" value="1" reducedCost="28.653294119718911"/>
  <variable name="x38" index="38" status="UL" value="1" reducedCost="46.43674691368895"/>
  <variable name="s0" index="39" status="LL" value="0" reducedCost="-5.9587975274289846"/>
  <variable name="s1" index="40" status="LL" value="0" reducedCost="-2.5662451790148459"/>
  <variable name="s2" index="41" status="LL" value="0" reducedCost="-1.4862582110843015"/>
  <variable name="s3" index="42" status="LL" value="0" reducedCost="0"/>
  <variable name="s4" index="43" status="LL" value="0" reducedCost="-5.5517461211982484"/>
 </variables>
 <objectiveValues>
  <objective index="0" name="" value="10672.34587816776"/>
 </objectiveValues>
</CPLEXSolution>
